instances/knapsack/knapsack_interdiction/knapsack_20_10_2.kp
42
20
3157

85 8.0 185 35.75
463 46.0 563 59.91
465 46.0 565 58.06
248 25.0 348 46.14
919 92.0 1019 190.82
305 30.0 405 80.14
32 3.0 132 20.51
557 56.0 657 108.7
569 57.0 669 117.29
451 45.0 551 76.22
895 90.0 995 127.92
634 63.0 734 122.29
426 43.0 526 66.8
691 69.0 791 118.67
65 6.0 165 32.5
333 33.0 433 79.37
506 51.0 606 91.34
728 73.0 828 159.81
567 57.0 667 128.91
532 53.0 632 82.58

42
[994, 3102, 3731, 2614, 3207, 2502, 939, 2960, 993, 985]

[[18, 28, 29, 22, 22, 15, 15, 14, 26, 19, 35, 27, 28, 8, 1, 10, 1, 31, 11, 19] [96, 0, 5, 58, 33, 62, 134, 39, 93, 35, 31, 27, 137, 104, 58, 2, 54, 47, 65, 61] [106, 107, 116, 46, 24, 45, 184, 178, 132, 143, 16, 168, 100, 18, 151, 98, 129, 61, 180, 46] [31, 12, 80, 67, 60, 110, 57, 110, 8, 110, 42, 56, 34, 85, 10, 14, 37, 5, 125, 2] [96, 107, 151, 113, 52, 16, 75, 49, 89, 52, 52, 157, 127, 158, 12, 73, 138, 76, 129, 3] [75, 9, 68, 6, 92, 62, 5, 2, 103, 46, 0, 6, 102, 121, 65, 20, 59, 61, 18, 28] [14, 12, 18, 33, 39, 29, 30, 0, 16, 34, 29, 17, 2, 15, 7, 33, 8, 39, 34, 15] [19, 128, 125, 55, 78, 67, 15, 129, 89, 10, 95, 107, 54, 29, 1, 59, 18, 53, 106, 48] [25, 13, 12, 35, 12, 18, 45, 12, 25, 38, 5, 31, 11, 12, 46, 19, 4, 0, 20, 49] [29, 37, 28, 6, 22, 19, 10, 44, 13, 6, 24, 22, 35, 33, 21, 48, 2, 37, 48, 12]]

[[664, 686, 244, 55, 986, 496, 315, 860, 308, 722, 482, 521, 157, 858, 604, 964, 277, 87, 994, 339] [316, 690, 328, 883, 390, 828, 175, 192, 88, 54, 846, 469, 201, 998, 536, 152, 473, 331, 974, 383] [320, 798, 620, 703, 34, 968, 691, 508, 332, 194, 802, 369, 557, 914, 796, 476, 485, 727, 834, 67] [674, 39, 107, 11, 613, 537, 58, 385, 711, 258, 320, 430, 816, 138, 306, 160, 480, 607, 641, 551] [131, 445, 351, 190, 853, 599, 910, 163, 39, 705, 277, 824, 704, 953, 719, 211, 616, 134, 613, 186] [788, 129, 69, 533, 391, 651, 916, 507, 49, 292, 42, 424, 10, 100, 404, 442, 778, 305, 603, 73] [133, 454, 214, 562, 368, 128, 653, 208, 42, 57, 939, 877, 779, 585, 517, 799, 243, 534, 236, 918] [586, 847, 899, 259, 69, 433, 458, 577, 655, 2, 352, 502, 856, 450, 530, 432, 456, 319, 193, 7] [779, 68, 188, 88, 406, 598, 115, 342, 168, 519, 993, 203, 825, 215, 403, 509, 769, 988, 682, 492] [389, 479, 401, 520, 135, 241, 704, 885, 985, 267, 543, 122, 122, 267, 41, 437, 290, 936, 303, 604]]
