instances/knapsack/knapsack_interdiction/knapsack_20_10_2.lp
\ Model knapsack_20_10_2
\ LP format - for model browsing. Use MPS format to capture full model detail.
\ Signature: 0xe03e275faf75ccec
Minimize
  35.75 x[0] + 59.91 x[1] + 58.06 x[2] + 46.14 x[3] + 190.82 x[4]
   + 80.14 x[5] + 20.51 x[6] + 108.7 x[7] + 117.29 x[8] + 76.22 x[9]
   + 127.92 x[10] + 122.29 x[11] + 66.8 x[12] + 118.67 x[13] + 32.5 x[14]
   + 79.37 x[15] + 91.34 x[16] + 159.81 x[17] + 128.91 x[18] + 82.58 x[19]
   - 185 y[0] - 563 y[1] - 565 y[2] - 348 y[3] - 1019 y[4] - 405 y[5]
   - 132 y[6] - 657 y[7] - 669 y[8] - 551 y[9] - 995 y[10] - 734 y[11]
   - 526 y[12] - 791 y[13] - 165 y[14] - 433 y[15] - 606 y[16] - 828 y[17]
   - 667 y[18] - 632 y[19]
Subject To
 primal_upper: 85 y[0] + 463 y[1] + 465 y[2] + 248 y[3] + 919 y[4]
   + 305 y[5] + 32 y[6] + 557 y[7] + 569 y[8] + 451 y[9] + 895 y[10]
   + 634 y[11] + 426 y[12] + 691 y[13] + 65 y[14] + 333 y[15] + 506 y[16]
   + 728 y[17] + 567 y[18] + 532 y[19] + 8 z[0] + 46 z[1] + 46 z[2]
   + 25 z[3] + 92 z[4] + 30 z[5] + 3 z[6] + 56 z[7] + 57 z[8] + 45 z[9]
   + 90 z[10] + 63 z[11] + 43 z[12] + 69 z[13] + 6 z[14] + 33 z[15]
   + 51 z[16] + 73 z[17] + 57 z[18] + 53 z[19] <= 3157
 primal_lower0: 664 u[0] + 686 u[1] + 244 u[2] + 55 u[3] + 986 u[4]
   + 496 u[5] + 315 u[6] + 860 u[7] + 308 u[8] + 722 u[9] + 482 u[10]
   + 521 u[11] + 157 u[12] + 858 u[13] + 604 u[14] + 964 u[15] + 277 u[16]
   + 87 u[17] + 994 u[18] + 339 u[19] <= 994
 primal_lower1: 316 u[0] + 690 u[1] + 328 u[2] + 883 u[3] + 390 u[4]
   + 828 u[5] + 175 u[6] + 192 u[7] + 88 u[8] + 54 u[9] + 846 u[10]
   + 469 u[11] + 201 u[12] + 998 u[13] + 536 u[14] + 152 u[15] + 473 u[16]
   + 331 u[17] + 974 u[18] + 383 u[19] <= 3102
 primal_lower2: 320 u[0] + 798 u[1] + 620 u[2] + 703 u[3] + 34 u[4]
   + 968 u[5] + 691 u[6] + 508 u[7] + 332 u[8] + 194 u[9] + 802 u[10]
   + 369 u[11] + 557 u[12] + 914 u[13] + 796 u[14] + 476 u[15] + 485 u[16]
   + 727 u[17] + 834 u[18] + 67 u[19] <= 3731
 primal_lower3: 674 u[0] + 39 u[1] + 107 u[2] + 11 u[3] + 613 u[4]
   + 537 u[5] + 58 u[6] + 385 u[7] + 711 u[8] + 258 u[9] + 320 u[10]
   + 430 u[11] + 816 u[12] + 138 u[13] + 306 u[14] + 160 u[15] + 480 u[16]
   + 607 u[17] + 641 u[18] + 551 u[19] <= 2614
 primal_lower4: 131 u[0] + 445 u[1] + 351 u[2] + 190 u[3] + 853 u[4]
   + 599 u[5] + 910 u[6] + 163 u[7] + 39 u[8] + 705 u[9] + 277 u[10]
   + 824 u[11] + 704 u[12] + 953 u[13] + 719 u[14] + 211 u[15] + 616 u[16]
   + 134 u[17] + 613 u[18] + 186 u[19] <= 3207
 primal_lower5: 788 u[0] + 129 u[1] + 69 u[2] + 533 u[3] + 391 u[4]
   + 651 u[5] + 916 u[6] + 507 u[7] + 49 u[8] + 292 u[9] + 42 u[10]
   + 424 u[11] + 10 u[12] + 100 u[13] + 404 u[14] + 442 u[15] + 778 u[16]
   + 305 u[17] + 603 u[18] + 73 u[19] <= 2502
 primal_lower6: 133 u[0] + 454 u[1] + 214 u[2] + 562 u[3] + 368 u[4]
   + 128 u[5] + 653 u[6] + 208 u[7] + 42 u[8] + 57 u[9] + 939 u[10]
   + 877 u[11] + 779 u[12] + 585 u[13] + 517 u[14] + 799 u[15] + 243 u[16]
   + 534 u[17] + 236 u[18] + 918 u[19] <= 939
 primal_lower7: 586 u[0] + 847 u[1] + 899 u[2] + 259 u[3] + 69 u[4]
   + 433 u[5] + 458 u[6] + 577 u[7] + 655 u[8] + 2 u[9] + 352 u[10]
   + 502 u[11] + 856 u[12] + 450 u[13] + 530 u[14] + 432 u[15] + 456 u[16]
   + 319 u[17] + 193 u[18] + 7 u[19] <= 2960
 primal_lower8: 779 u[0] + 68 u[1] + 188 u[2] + 88 u[3] + 406 u[4]
   + 598 u[5] + 115 u[6] + 342 u[7] + 168 u[8] + 519 u[9] + 993 u[10]
   + 203 u[11] + 825 u[12] + 215 u[13] + 403 u[14] + 509 u[15] + 769 u[16]
   + 988 u[17] + 682 u[18] + 492 u[19] <= 993
 primal_lower9: 389 u[0] + 479 u[1] + 401 u[2] + 520 u[3] + 135 u[4]
   + 241 u[5] + 704 u[6] + 885 u[7] + 985 u[8] + 267 u[9] + 543 u[10]
   + 122 u[11] + 122 u[12] + 267 u[13] + 41 u[14] + 437 u[15] + 290 u[16]
   + 936 u[17] + 303 u[18] + 604 u[19] <= 985
 interdiction[0]: x[0] + u[0] <= 1
 interdiction[1]: x[1] + u[1] <= 1
 interdiction[2]: x[2] + u[2] <= 1
 interdiction[3]: x[3] + u[3] <= 1
 interdiction[4]: x[4] + u[4] <= 1
 interdiction[5]: x[5] + u[5] <= 1
 interdiction[6]: x[6] + u[6] <= 1
 interdiction[7]: x[7] + u[7] <= 1
 interdiction[8]: x[8] + u[8] <= 1
 interdiction[9]: x[9] + u[9] <= 1
 interdiction[10]: x[10] + u[10] <= 1
 interdiction[11]: x[11] + u[11] <= 1
 interdiction[12]: x[12] + u[12] <= 1
 interdiction[13]: x[13] + u[13] <= 1
 interdiction[14]: x[14] + u[14] <= 1
 interdiction[15]: x[15] + u[15] <= 1
 interdiction[16]: x[16] + u[16] <= 1
 interdiction[17]: x[17] + u[17] <= 1
 interdiction[18]: x[18] + u[18] <= 1
 interdiction[19]: x[19] + u[19] <= 1
 mccormick1[0]: - u[0] + z[0] <= 0
 mccormick1[1]: - u[1] + z[1] <= 0
 mccormick1[2]: - u[2] + z[2] <= 0
 mccormick1[3]: - u[3] + z[3] <= 0
 mccormick1[4]: - u[4] + z[4] <= 0
 mccormick1[5]: - u[5] + z[5] <= 0
 mccormick1[6]: - u[6] + z[6] <= 0
 mccormick1[7]: - u[7] + z[7] <= 0
 mccormick1[8]: - u[8] + z[8] <= 0
 mccormick1[9]: - u[9] + z[9] <= 0
 mccormick1[10]: - u[10] + z[10] <= 0
 mccormick1[11]: - u[11] + z[11] <= 0
 mccormick1[12]: - u[12] + z[12] <= 0
 mccormick1[13]: - u[13] + z[13] <= 0
 mccormick1[14]: - u[14] + z[14] <= 0
 mccormick1[15]: - u[15] + z[15] <= 0
 mccormick1[16]: - u[16] + z[16] <= 0
 mccormick1[17]: - u[17] + z[17] <= 0
 mccormick1[18]: - u[18] + z[18] <= 0
 mccormick1[19]: - u[19] + z[19] <= 0
 mccormick2[0]: - y[0] + z[0] <= 0
 mccormick2[1]: - y[1] + z[1] <= 0
 mccormick2[2]: - y[2] + z[2] <= 0
 mccormick2[3]: - y[3] + z[3] <= 0
 mccormick2[4]: - y[4] + z[4] <= 0
 mccormick2[5]: - y[5] + z[5] <= 0
 mccormick2[6]: - y[6] + z[6] <= 0
 mccormick2[7]: - y[7] + z[7] <= 0
 mccormick2[8]: - y[8] + z[8] <= 0
 mccormick2[9]: - y[9] + z[9] <= 0
 mccormick2[10]: - y[10] + z[10] <= 0
 mccormick2[11]: - y[11] + z[11] <= 0
 mccormick2[12]: - y[12] + z[12] <= 0
 mccormick2[13]: - y[13] + z[13] <= 0
 mccormick2[14]: - y[14] + z[14] <= 0
 mccormick2[15]: - y[15] + z[15] <= 0
 mccormick2[16]: - y[16] + z[16] <= 0
 mccormick2[17]: - y[17] + z[17] <= 0
 mccormick2[18]: - y[18] + z[18] <= 0
 mccormick2[19]: - y[19] + z[19] <= 0
 mccormick3[0]: y[0] + u[0] - z[0] <= 1
 mccormick3[1]: y[1] + u[1] - z[1] <= 1
 mccormick3[2]: y[2] + u[2] - z[2] <= 1
 mccormick3[3]: y[3] + u[3] - z[3] <= 1
 mccormick3[4]: y[4] + u[4] - z[4] <= 1
 mccormick3[5]: y[5] + u[5] - z[5] <= 1
 mccormick3[6]: y[6] + u[6] - z[6] <= 1
 mccormick3[7]: y[7] + u[7] - z[7] <= 1
 mccormick3[8]: y[8] + u[8] - z[8] <= 1
 mccormick3[9]: y[9] + u[9] - z[9] <= 1
 mccormick3[10]: y[10] + u[10] - z[10] <= 1
 mccormick3[11]: y[11] + u[11] - z[11] <= 1
 mccormick3[12]: y[12] + u[12] - z[12] <= 1
 mccormick3[13]: y[13] + u[13] - z[13] <= 1
 mccormick3[14]: y[14] + u[14] - z[14] <= 1
 mccormick3[15]: y[15] + u[15] - z[15] <= 1
 mccormick3[16]: y[16] + u[16] - z[16] <= 1
 mccormick3[17]: y[17] + u[17] - z[17] <= 1
 mccormick3[18]: y[18] + u[18] - z[18] <= 1
 mccormick3[19]: y[19] + u[19] - z[19] <= 1
Bounds
Binaries
 x[0] x[1] x[2] x[3] x[4] x[5] x[6] x[7] x[8] x[9] x[10] x[11] x[12] x[13]
 x[14] x[15] x[16] x[17] x[18] x[19] y[0] y[1] y[2] y[3] y[4] y[5] y[6]
 y[7] y[8] y[9] y[10] y[11] y[12] y[13] y[14] y[15] y[16] y[17] y[18] y[19]
 u[0] u[1] u[2] u[3] u[4] u[5] u[6] u[7] u[8] u[9] u[10] u[11] u[12] u[13]
 u[14] u[15] u[16] u[17] u[18] u[19] z[0] z[1] z[2] z[3] z[4] z[5] z[6]
 z[7] z[8] z[9] z[10] z[11] z[12] z[13] z[14] z[15] z[16] z[17] z[18] z[19]
End
