instances/knapsack/knapsack_interdiction/knapsack_20_10_2.mps
* Signature: 0xe03e275faf75ccec
NAME knapsack_20_10_2
ROWS
 N  OBJ
 L  primal_upper
 L  primal_lower0
 L  primal_lower1
 L  primal_lower2
 L  primal_lower3
 L  primal_lower4
 L  primal_lower5
 L  primal_lower6
 L  primal_lower7
 L  primal_lower8
 L  primal_lower9
 L  interdiction[0]
 L  interdiction[1]
 L  interdiction[2]
 L  interdiction[3]
 L  interdiction[4]
 L  interdiction[5]
 L  interdiction[6]
 L  interdiction[7]
 L  interdiction[8]
 L  interdiction[9]
 L  interdiction[10]
 L  interdiction[11]
 L  interdiction[12]
 L  interdiction[13]
 L  interdiction[14]
 L  interdiction[15]
 L  interdiction[16]
 L  interdiction[17]
 L  interdiction[18]
 L  interdiction[19]
 L  mccormick1[0]
 L  mccormick1[1]
 L  mccormick1[2]
 L  mccormick1[3]
 L  mccormick1[4]
 L  mccormick1[5]
 L  mccormick1[6]
 L  mccormick1[7]
 L  mccormick1[8]
 L  mccormick1[9]
 L  mccormick1[10]
 L  mccormick1[11]
 L  mccormick1[12]
 L  mccormick1[13]
 L  mccormick1[14]
 L  mccormick1[15]
 L  mccormick1[16]
 L  mccormick1[17]
 L  mccormick1[18]
 L  mccormick1[19]
 L  mccormick2[0]
 L  mccormick2[1]
 L  mccormick2[2]
 L  mccormick2[3]
 L  mccormick2[4]
 L  mccormick2[5]
 L  mccormick2[6]
 L  mccormick2[7]
 L  mccormick2[8]
 L  mccormick2[9]
 L  mccormick2[10]
 L  mccormick2[11]
 L  mccormick2[12]
 L  mccormick2[13]
 L  mccormick2[14]
 L  mccormick2[15]
 L  mccormick2[16]
 L  mccormick2[17]
 L  mccormick2[18]
 L  mccormick2[19]
 L  mccormick3[0]
 L  mccormick3[1]
 L  mccormick3[2]
 L  mccormick3[3]
 L  mccormick3[4]
 L  mccormick3[5]
 L  mccormick3[6]
 L  mccormick3[7]
 L  mccormick3[8]
 L  mccormick3[9]
 L  mccormick3[10]
 L  mccormick3[11]
 L  mccormick3[12]
 L  mccormick3[13]
 L  mccormick3[14]
 L  mccormick3[15]
 L  mccormick3[16]
 L  mccormick3[17]
 L  mccormick3[18]
 L  mccormick3[19]
COLUMNS
    MARKER    'MARKER'                 'INTORG'
    x[0]      OBJ       35.75
    x[0]      interdiction[0]  1
    x[1]      OBJ       59.91
    x[1]      interdiction[1]  1
    x[2]      OBJ       58.06
    x[2]      interdiction[2]  1
    x[3]      OBJ       46.14
    x[3]      interdiction[3]  1
    x[4]      OBJ       190.82
    x[4]      interdiction[4]  1
    x[5]      OBJ       80.14
    x[5]      interdiction[5]  1
    x[6]      OBJ       20.51
    x[6]      interdiction[6]  1
    x[7]      OBJ       108.7
    x[7]      interdiction[7]  1
    x[8]      OBJ       117.29
    x[8]      interdiction[8]  1
    x[9]      OBJ       76.22
    x[9]      interdiction[9]  1
    x[10]     OBJ       127.92
    x[10]     interdiction[10]  1
    x[11]     OBJ       122.29
    x[11]     interdiction[11]  1
    x[12]     OBJ       66.8
    x[12]     interdiction[12]  1
    x[13]     OBJ       118.67
    x[13]     interdiction[13]  1
    x[14]     OBJ       32.5
    x[14]     interdiction[14]  1
    x[15]     OBJ       79.37
    x[15]     interdiction[15]  1
    x[16]     OBJ       91.34
    x[16]     interdiction[16]  1
    x[17]     OBJ       159.81
    x[17]     interdiction[17]  1
    x[18]     OBJ       128.91
    x[18]     interdiction[18]  1
    x[19]     OBJ       82.58
    x[19]     interdiction[19]  1
    y[0]      OBJ       -185
    y[0]      primal_upper  85
    y[0]      mccormick2[0]  -1
    y[0]      mccormick3[0]  1
    y[1]      OBJ       -563
    y[1]      primal_upper  463
    y[1]      mccormick2[1]  -1
    y[1]      mccormick3[1]  1
    y[2]      OBJ       -565
    y[2]      primal_upper  465
    y[2]      mccormick2[2]  -1
    y[2]      mccormick3[2]  1
    y[3]      OBJ       -348
    y[3]      primal_upper  248
    y[3]      mccormick2[3]  -1
    y[3]      mccormick3[3]  1
    y[4]      OBJ       -1019
    y[4]      primal_upper  919
    y[4]      mccormick2[4]  -1
    y[4]      mccormick3[4]  1
    y[5]      OBJ       -405
    y[5]      primal_upper  305
    y[5]      mccormick2[5]  -1
    y[5]      mccormick3[5]  1
    y[6]      OBJ       -132
    y[6]      primal_upper  32
    y[6]      mccormick2[6]  -1
    y[6]      mccormick3[6]  1
    y[7]      OBJ       -657
    y[7]      primal_upper  557
    y[7]      mccormick2[7]  -1
    y[7]      mccormick3[7]  1
    y[8]      OBJ       -669
    y[8]      primal_upper  569
    y[8]      mccormick2[8]  -1
    y[8]      mccormick3[8]  1
    y[9]      OBJ       -551
    y[9]      primal_upper  451
    y[9]      mccormick2[9]  -1
    y[9]      mccormick3[9]  1
    y[10]     OBJ       -995
    y[10]     primal_upper  895
    y[10]     mccormick2[10]  -1
    y[10]     mccormick3[10]  1
    y[11]     OBJ       -734
    y[11]     primal_upper  634
    y[11]     mccormick2[11]  -1
    y[11]     mccormick3[11]  1
    y[12]     OBJ       -526
    y[12]     primal_upper  426
    y[12]     mccormick2[12]  -1
    y[12]     mccormick3[12]  1
    y[13]     OBJ       -791
    y[13]     primal_upper  691
    y[13]     mccormick2[13]  -1
    y[13]     mccormick3[13]  1
    y[14]     OBJ       -165
    y[14]     primal_upper  65
    y[14]     mccormick2[14]  -1
    y[14]     mccormick3[14]  1
    y[15]     OBJ       -433
    y[15]     primal_upper  333
    y[15]     mccormick2[15]  -1
    y[15]     mccormick3[15]  1
    y[16]     OBJ       -606
    y[16]     primal_upper  506
    y[16]     mccormick2[16]  -1
    y[16]     mccormick3[16]  1
    y[17]     OBJ       -828
    y[17]     primal_upper  728
    y[17]     mccormick2[17]  -1
    y[17]     mccormick3[17]  1
    y[18]     OBJ       -667
    y[18]     primal_upper  567
    y[18]     mccormick2[18]  -1
    y[18]     mccormick3[18]  1
    y[19]     OBJ       -632
    y[19]     primal_upper  532
    y[19]     mccormick2[19]  -1
    y[19]     mccormick3[19]  1
    u[0]      primal_lower0  664
    u[0]      primal_lower1  316
    u[0]      primal_lower2  320
    u[0]      primal_lower3  674
    u[0]      primal_lower4  131
    u[0]      primal_lower5  788
    u[0]      primal_lower6  133
    u[0]      primal_lower7  586
    u[0]      primal_lower8  779
    u[0]      primal_lower9  389
    u[0]      interdiction[0]  1
    u[0]      mccormick1[0]  -1
    u[0]      mccormick3[0]  1
    u[1]      primal_lower0  686
    u[1]      primal_lower1  690
    u[1]      primal_lower2  798
    u[1]      primal_lower3  39
    u[1]      primal_lower4  445
    u[1]      primal_lower5  129
    u[1]      primal_lower6  454
    u[1]      primal_lower7  847
    u[1]      primal_lower8  68
    u[1]      primal_lower9  479
    u[1]      interdiction[1]  1
    u[1]      mccormick1[1]  -1
    u[1]      mccormick3[1]  1
    u[2]      primal_lower0  244
    u[2]      primal_lower1  328
    u[2]      primal_lower2  620
    u[2]      primal_lower3  107
    u[2]      primal_lower4  351
    u[2]      primal_lower5  69
    u[2]      primal_lower6  214
    u[2]      primal_lower7  899
    u[2]      primal_lower8  188
    u[2]      primal_lower9  401
    u[2]      interdiction[2]  1
    u[2]      mccormick1[2]  -1
    u[2]      mccormick3[2]  1
    u[3]      primal_lower0  55
    u[3]      primal_lower1  883
    u[3]      primal_lower2  703
    u[3]      primal_lower3  11
    u[3]      primal_lower4  190
    u[3]      primal_lower5  533
    u[3]      primal_lower6  562
    u[3]      primal_lower7  259
    u[3]      primal_lower8  88
    u[3]      primal_lower9  520
    u[3]      interdiction[3]  1
    u[3]      mccormick1[3]  -1
    u[3]      mccormick3[3]  1
    u[4]      primal_lower0  986
    u[4]      primal_lower1  390
    u[4]      primal_lower2  34
    u[4]      primal_lower3  613
    u[4]      primal_lower4  853
    u[4]      primal_lower5  391
    u[4]      primal_lower6  368
    u[4]      primal_lower7  69
    u[4]      primal_lower8  406
    u[4]      primal_lower9  135
    u[4]      interdiction[4]  1
    u[4]      mccormick1[4]  -1
    u[4]      mccormick3[4]  1
    u[5]      primal_lower0  496
    u[5]      primal_lower1  828
    u[5]      primal_lower2  968
    u[5]      primal_lower3  537
    u[5]      primal_lower4  599
    u[5]      primal_lower5  651
    u[5]      primal_lower6  128
    u[5]      primal_lower7  433
    u[5]      primal_lower8  598
    u[5]      primal_lower9  241
    u[5]      interdiction[5]  1
    u[5]      mccormick1[5]  -1
    u[5]      mccormick3[5]  1
    u[6]      primal_lower0  315
    u[6]      primal_lower1  175
    u[6]      primal_lower2  691
    u[6]      primal_lower3  58
    u[6]      primal_lower4  910
    u[6]      primal_lower5  916
    u[6]      primal_lower6  653
    u[6]      primal_lower7  458
    u[6]      primal_lower8  115
    u[6]      primal_lower9  704
    u[6]      interdiction[6]  1
    u[6]      mccormick1[6]  -1
    u[6]      mccormick3[6]  1
    u[7]      primal_lower0  860
    u[7]      primal_lower1  192
    u[7]      primal_lower2  508
    u[7]      primal_lower3  385
    u[7]      primal_lower4  163
    u[7]      primal_lower5  507
    u[7]      primal_lower6  208
    u[7]      primal_lower7  577
    u[7]      primal_lower8  342
    u[7]      primal_lower9  885
    u[7]      interdiction[7]  1
    u[7]      mccormick1[7]  -1
    u[7]      mccormick3[7]  1
    u[8]      primal_lower0  308
    u[8]      primal_lower1  88
    u[8]      primal_lower2  332
    u[8]      primal_lower3  711
    u[8]      primal_lower4  39
    u[8]      primal_lower5  49
    u[8]      primal_lower6  42
    u[8]      primal_lower7  655
    u[8]      primal_lower8  168
    u[8]      primal_lower9  985
    u[8]      interdiction[8]  1
    u[8]      mccormick1[8]  -1
    u[8]      mccormick3[8]  1
    u[9]      primal_lower0  722
    u[9]      primal_lower1  54
    u[9]      primal_lower2  194
    u[9]      primal_lower3  258
    u[9]      primal_lower4  705
    u[9]      primal_lower5  292
    u[9]      primal_lower6  57
    u[9]      primal_lower7  2
    u[9]      primal_lower8  519
    u[9]      primal_lower9  267
    u[9]      interdiction[9]  1
    u[9]      mccormick1[9]  -1
    u[9]      mccormick3[9]  1
    u[10]     primal_lower0  482
    u[10]     primal_lower1  846
    u[10]     primal_lower2  802
    u[10]     primal_lower3  320
    u[10]     primal_lower4  277
    u[10]     primal_lower5  42
    u[10]     primal_lower6  939
    u[10]     primal_lower7  352
    u[10]     primal_lower8  993
    u[10]     primal_lower9  543
    u[10]     interdiction[10]  1
    u[10]     mccormick1[10]  -1
    u[10]     mccormick3[10]  1
    u[11]     primal_lower0  521
    u[11]     primal_lower1  469
    u[11]     primal_lower2  369
    u[11]     primal_lower3  430
    u[11]     primal_lower4  824
    u[11]     primal_lower5  424
    u[11]     primal_lower6  877
    u[11]     primal_lower7  502
    u[11]     primal_lower8  203
    u[11]     primal_lower9  122
    u[11]     interdiction[11]  1
    u[11]     mccormick1[11]  -1
    u[11]     mccormick3[11]  1
    u[12]     primal_lower0  157
    u[12]     primal_lower1  201
    u[12]     primal_lower2  557
    u[12]     primal_lower3  816
    u[12]     primal_lower4  704
    u[12]     primal_lower5  10
    u[12]     primal_lower6  779
    u[12]     primal_lower7  856
    u[12]     primal_lower8  825
    u[12]     primal_lower9  122
    u[12]     interdiction[12]  1
    u[12]     mccormick1[12]  -1
    u[12]     mccormick3[12]  1
    u[13]     primal_lower0  858
    u[13]     primal_lower1  998
    u[13]     primal_lower2  914
    u[13]     primal_lower3  138
    u[13]     primal_lower4  953
    u[13]     primal_lower5  100
    u[13]     primal_lower6  585
    u[13]     primal_lower7  450
    u[13]     primal_lower8  215
    u[13]     primal_lower9  267
    u[13]     interdiction[13]  1
    u[13]     mccormick1[13]  -1
    u[13]     mccormick3[13]  1
    u[14]     primal_lower0  604
    u[14]     primal_lower1  536
    u[14]     primal_lower2  796
    u[14]     primal_lower3  306
    u[14]     primal_lower4  719
    u[14]     primal_lower5  404
    u[14]     primal_lower6  517
    u[14]     primal_lower7  530
    u[14]     primal_lower8  403
    u[14]     primal_lower9  41
    u[14]     interdiction[14]  1
    u[14]     mccormick1[14]  -1
    u[14]     mccormick3[14]  1
    u[15]     primal_lower0  964
    u[15]     primal_lower1  152
    u[15]     primal_lower2  476
    u[15]     primal_lower3  160
    u[15]     primal_lower4  211
    u[15]     primal_lower5  442
    u[15]     primal_lower6  799
    u[15]     primal_lower7  432
    u[15]     primal_lower8  509
    u[15]     primal_lower9  437
    u[15]     interdiction[15]  1
    u[15]     mccormick1[15]  -1
    u[15]     mccormick3[15]  1
    u[16]     primal_lower0  277
    u[16]     primal_lower1  473
    u[16]     primal_lower2  485
    u[16]     primal_lower3  480
    u[16]     primal_lower4  616
    u[16]     primal_lower5  778
    u[16]     primal_lower6  243
    u[16]     primal_lower7  456
    u[16]     primal_lower8  769
    u[16]     primal_lower9  290
    u[16]     interdiction[16]  1
    u[16]     mccormick1[16]  -1
    u[16]     mccormick3[16]  1
    u[17]     primal_lower0  87
    u[17]     primal_lower1  331
    u[17]     primal_lower2  727
    u[17]     primal_lower3  607
    u[17]     primal_lower4  134
    u[17]     primal_lower5  305
    u[17]     primal_lower6  534
    u[17]     primal_lower7  319
    u[17]     primal_lower8  988
    u[17]     primal_lower9  936
    u[17]     interdiction[17]  1
    u[17]     mccormick1[17]  -1
    u[17]     mccormick3[17]  1
    u[18]     primal_lower0  994
    u[18]     primal_lower1  974
    u[18]     primal_lower2  834
    u[18]     primal_lower3  641
    u[18]     primal_lower4  613
    u[18]     primal_lower5  603
    u[18]     primal_lower6  236
    u[18]     primal_lower7  193
    u[18]     primal_lower8  682
    u[18]     primal_lower9  303
    u[18]     interdiction[18]  1
    u[18]     mccormick1[18]  -1
    u[18]     mccormick3[18]  1
    u[19]     primal_lower0  339
    u[19]     primal_lower1  383
    u[19]     primal_lower2  67
    u[19]     primal_lower3  551
    u[19]     primal_lower4  186
    u[19]     primal_lower5  73
    u[19]     primal_lower6  918
    u[19]     primal_lower7  7
    u[19]     primal_lower8  492
    u[19]     primal_lower9  604
    u[19]     interdiction[19]  1
    u[19]     mccormick1[19]  -1
    u[19]     mccormick3[19]  1
    z[0]      primal_upper  8
    z[0]      mccormick1[0]  1
    z[0]      mccormick2[0]  1
    z[0]      mccormick3[0]  -1
    z[1]      primal_upper  46
    z[1]      mccormick1[1]  1
    z[1]      mccormick2[1]  1
    z[1]      mccormick3[1]  -1
    z[2]      primal_upper  46
    z[2]      mccormick1[2]  1
    z[2]      mccormick2[2]  1
    z[2]      mccormick3[2]  -1
    z[3]      primal_upper  25
    z[3]      mccormick1[3]  1
    z[3]      mccormick2[3]  1
    z[3]      mccormick3[3]  -1
    z[4]      primal_upper  92
    z[4]      mccormick1[4]  1
    z[4]      mccormick2[4]  1
    z[4]      mccormick3[4]  -1
    z[5]      primal_upper  30
    z[5]      mccormick1[5]  1
    z[5]      mccormick2[5]  1
    z[5]      mccormick3[5]  -1
    z[6]      primal_upper  3
    z[6]      mccormick1[6]  1
    z[6]      mccormick2[6]  1
    z[6]      mccormick3[6]  -1
    z[7]      primal_upper  56
    z[7]      mccormick1[7]  1
    z[7]      mccormick2[7]  1
    z[7]      mccormick3[7]  -1
    z[8]      primal_upper  57
    z[8]      mccormick1[8]  1
    z[8]      mccormick2[8]  1
    z[8]      mccormick3[8]  -1
    z[9]      primal_upper  45
    z[9]      mccormick1[9]  1
    z[9]      mccormick2[9]  1
    z[9]      mccormick3[9]  -1
    z[10]     primal_upper  90
    z[10]     mccormick1[10]  1
    z[10]     mccormick2[10]  1
    z[10]     mccormick3[10]  -1
    z[11]     primal_upper  63
    z[11]     mccormick1[11]  1
    z[11]     mccormick2[11]  1
    z[11]     mccormick3[11]  -1
    z[12]     primal_upper  43
    z[12]     mccormick1[12]  1
    z[12]     mccormick2[12]  1
    z[12]     mccormick3[12]  -1
    z[13]     primal_upper  69
    z[13]     mccormick1[13]  1
    z[13]     mccormick2[13]  1
    z[13]     mccormick3[13]  -1
    z[14]     primal_upper  6
    z[14]     mccormick1[14]  1
    z[14]     mccormick2[14]  1
    z[14]     mccormick3[14]  -1
    z[15]     primal_upper  33
    z[15]     mccormick1[15]  1
    z[15]     mccormick2[15]  1
    z[15]     mccormick3[15]  -1
    z[16]     primal_upper  51
    z[16]     mccormick1[16]  1
    z[16]     mccormick2[16]  1
    z[16]     mccormick3[16]  -1
    z[17]     primal_upper  73
    z[17]     mccormick1[17]  1
    z[17]     mccormick2[17]  1
    z[17]     mccormick3[17]  -1
    z[18]     primal_upper  57
    z[18]     mccormick1[18]  1
    z[18]     mccormick2[18]  1
    z[18]     mccormick3[18]  -1
    z[19]     primal_upper  53
    z[19]     mccormick1[19]  1
    z[19]     mccormick2[19]  1
    z[19]     mccormick3[19]  -1
    MARKER    'MARKER'                 'INTEND'
RHS
    RHS1      primal_upper  3157
    RHS1      primal_lower0  994
    RHS1      primal_lower1  3102
    RHS1      primal_lower2  3731
    RHS1      primal_lower3  2614
    RHS1      primal_lower4  3207
    RHS1      primal_lower5  2502
    RHS1      primal_lower6  939
    RHS1      primal_lower7  2960
    RHS1      primal_lower8  993
    RHS1      primal_lower9  985
    RHS1      interdiction[0]  1
    RHS1      interdiction[1]  1
    RHS1      interdiction[2]  1
    RHS1      interdiction[3]  1
    RHS1      interdiction[4]  1
    RHS1      interdiction[5]  1
    RHS1      interdiction[6]  1
    RHS1      interdiction[7]  1
    RHS1      interdiction[8]  1
    RHS1      interdiction[9]  1
    RHS1      interdiction[10]  1
    RHS1      interdiction[11]  1
    RHS1      interdiction[12]  1
    RHS1      interdiction[13]  1
    RHS1      interdiction[14]  1
    RHS1      interdiction[15]  1
    RHS1      interdiction[16]  1
    RHS1      interdiction[17]  1
    RHS1      interdiction[18]  1
    RHS1      interdiction[19]  1
    RHS1      mccormick3[0]  1
    RHS1      mccormick3[1]  1
    RHS1      mccormick3[2]  1
    RHS1      mccormick3[3]  1
    RHS1      mccormick3[4]  1
    RHS1      mccormick3[5]  1
    RHS1      mccormick3[6]  1
    RHS1      mccormick3[7]  1
    RHS1      mccormick3[8]  1
    RHS1      mccormick3[9]  1
    RHS1      mccormick3[10]  1
    RHS1      mccormick3[11]  1
    RHS1      mccormick3[12]  1
    RHS1      mccormick3[13]  1
    RHS1      mccormick3[14]  1
    RHS1      mccormick3[15]  1
    RHS1      mccormick3[16]  1
    RHS1      mccormick3[17]  1
    RHS1      mccormick3[18]  1
    RHS1      mccormick3[19]  1
BOUNDS
 BV BND1      x[0]    
 BV BND1      x[1]    
 BV BND1      x[2]    
 BV BND1      x[3]    
 BV BND1      x[4]    
 BV BND1      x[5]    
 BV BND1      x[6]    
 BV BND1      x[7]    
 BV BND1      x[8]    
 BV BND1      x[9]    
 BV BND1      x[10]   
 BV BND1      x[11]   
 BV BND1      x[12]   
 BV BND1      x[13]   
 BV BND1      x[14]   
 BV BND1      x[15]   
 BV BND1      x[16]   
 BV BND1      x[17]   
 BV BND1      x[18]   
 BV BND1      x[19]   
 BV BND1      y[0]    
 BV BND1      y[1]    
 BV BND1      y[2]    
 BV BND1      y[3]    
 BV BND1      y[4]    
 BV BND1      y[5]    
 BV BND1      y[6]    
 BV BND1      y[7]    
 BV BND1      y[8]    
 BV BND1      y[9]    
 BV BND1      y[10]   
 BV BND1      y[11]   
 BV BND1      y[12]   
 BV BND1      y[13]   
 BV BND1      y[14]   
 BV BND1      y[15]   
 BV BND1      y[16]   
 BV BND1      y[17]   
 BV BND1      y[18]   
 BV BND1      y[19]   
 BV BND1      u[0]    
 BV BND1      u[1]    
 BV BND1      u[2]    
 BV BND1      u[3]    
 BV BND1      u[4]    
 BV BND1      u[5]    
 BV BND1      u[6]    
 BV BND1      u[7]    
 BV BND1      u[8]    
 BV BND1      u[9]    
 BV BND1      u[10]   
 BV BND1      u[11]   
 BV BND1      u[12]   
 BV BND1      u[13]   
 BV BND1      u[14]   
 BV BND1      u[15]   
 BV BND1      u[16]   
 BV BND1      u[17]   
 BV BND1      u[18]   
 BV BND1      u[19]   
 BV BND1      z[0]    
 BV BND1      z[1]    
 BV BND1      z[2]    
 BV BND1      z[3]    
 BV BND1      z[4]    
 BV BND1      z[5]    
 BV BND1      z[6]    
 BV BND1      z[7]    
 BV BND1      z[8]    
 BV BND1      z[9]    
 BV BND1      z[10]   
 BV BND1      z[11]   
 BV BND1      z[12]   
 BV BND1      z[13]   
 BV BND1      z[14]   
 BV BND1      z[15]   
 BV BND1      z[16]   
 BV BND1      z[17]   
 BV BND1      z[18]   
 BV BND1      z[19]   
ENDATA
